(set-logic HORN)

(declare-datatypes ((TSLL 0)) (((TSLL  (next Int) (prev Int) (colour Int)))))
(declare-datatypes ((HeapObject 0)) (((O_Int  (getInt Int)) (O_UInt  (getUInt Int)) (O_Addr  (getAddr Int)) (O_TSLL  (getTSLL TSLL)) (defObj ))))
(declare-datatypes ((Heap 0)) (((HeapCtor  (HeapSize Int) (HeapContents (Array Int HeapObject))))))

(declare-fun |inv_main43| ( Heap Int Int Int ) Bool)
(declare-fun |inv_main55| ( Heap Int Int Int ) Bool)
(declare-fun |inv_main48| ( Heap Int Int Int ) Bool)
(declare-fun |inv_main32| ( Heap Int Int Int ) Bool)
(declare-fun |inv_main77| ( Heap Int Int Int ) Bool)
(declare-fun |inv_main60| ( Heap Int Int Int ) Bool)
(declare-fun |inv_main27| ( Heap Int Int Int Int ) Bool)
(declare-fun |inv_main31| ( Heap Int Int Int ) Bool)
(declare-fun |inv_main8| ( Heap Int Int ) Bool)
(declare-fun |inv_main11| ( Heap Int Int Int ) Bool)
(declare-fun |inv_main4| ( Heap Int ) Bool)
(declare-fun |inv_main7| ( Heap Int Int ) Bool)
(declare-fun |inv_main34| ( Heap Int Int Int ) Bool)
(declare-fun |inv_main28| ( Heap Int Int Int ) Bool)
(declare-fun |inv_main2| ( Heap ) Bool)
(declare-fun |inv_main15| ( Heap Int Int Int ) Bool)
(declare-fun |inv_main81| ( Heap Int Int Int ) Bool)
(declare-fun |inv_main78| ( Heap Int Int Int ) Bool)
(declare-fun |inv_main39| ( Heap Int Int Int ) Bool)
(declare-fun |inv_main67| ( Heap Int Int Int ) Bool)
(declare-fun |inv_main50| ( Heap Int Int Int ) Bool)
(declare-fun |inv_main3| ( Heap Int ) Bool)
(declare-fun |inv_main59| ( Heap Int Int Int ) Bool)
(declare-fun |inv_main29| ( Heap Int Int Int ) Bool)
(declare-fun |CHC_COMP_FALSE| ( ) Bool)
(declare-fun |inv_main16| ( Heap Int Int Int Int ) Bool)
(declare-fun |inv_main5| ( Heap Int ) Bool)
(declare-fun |inv_main17| ( Heap Int Int Int ) Bool)
(declare-fun |inv_main23| ( Heap Int Int Int ) Bool)
(declare-fun |inv_main22| ( Heap Int Int Int ) Bool)
(declare-fun |inv_main21| ( Heap Int Int Int ) Bool)
(declare-fun |inv_main76| ( Heap Int Int Int ) Bool)
(declare-fun |inv_main26| ( Heap Int Int Int ) Bool)
(declare-fun |inv_main65| ( Heap Int Int Int ) Bool)
(declare-fun |inv_main71| ( Heap Int Int Int ) Bool)
(declare-fun |inv_main61| ( Heap Int Int Int ) Bool)
(declare-fun |inv_main9| ( Heap Int Int ) Bool)
(declare-fun |inv_main18| ( Heap Int Int Int ) Bool)

(assert
  (forall ( (v_0 Heap) ) 
    (=>
      (and
        (and true (= v_0 (HeapCtor 0 ((as const (Array Int HeapObject)) defObj))))
      )
      (inv_main2 v_0)
    )
  )
)
(assert
  (forall ( (A Int) (B Int) (C Int) (D Heap) ) 
    (=>
      (and
        (inv_main65 D C B A)
        (let ((a!1 (ite (and (not (<= A 0)) (>= (HeapSize D) A))
                (select (HeapContents D) A)
                defObj)))
(let ((a!2 (not (= 1 (colour (getTSLL a!1))))))
  (and ((_ is O_TSLL) a!1) a!2)))
      )
      (inv_main71 D C B A)
    )
  )
)
(assert
  (forall ( (A Int) (B Int) (C Int) (D Heap) ) 
    (=>
      (and
        (inv_main76 D C B A)
        (let ((a!1 (ite (and (not (<= B 0)) (>= (HeapSize D) B))
                (select (HeapContents D) B)
                defObj)))
(let ((a!2 (not (= 0 (colour (getTSLL a!1))))))
  (and ((_ is O_TSLL) a!1) a!2)))
      )
      (inv_main78 D C B A)
    )
  )
)
(assert
  (forall ( (A Heap) (B Int) (C Int) (D Int) (E Heap) ) 
    (=>
      (and
        (inv_main26 E D C B)
        (let ((a!1 (ite (and (not (<= B 0)) (>= (HeapSize E) B))
                (select (HeapContents E) B)
                defObj)))
(let ((a!2 (not (<= (next (getTSLL a!1)) 0))))
(let ((a!3 (and a!2 (>= (HeapSize E) (next (getTSLL a!1))))))
(let ((a!4 (ite a!3 (select (HeapContents E) (next (getTSLL a!1))) defObj)))
(let ((a!5 (O_TSLL (TSLL (next (getTSLL a!4)) B (colour (getTSLL a!4))))))
(let ((a!6 (HeapCtor (HeapSize E)
                     (store (HeapContents E) (next (getTSLL a!1)) a!5))))
  (and ((_ is O_TSLL) a!4) ((_ is O_TSLL) a!1) (= A (ite a!3 a!6 E)))))))))
      )
      (inv_main28 A D C B)
    )
  )
)
(assert
  (forall ( (A Heap) (B Int) (C Int) (D Int) (E Heap) ) 
    (=>
      (and
        (inv_main15 E D C B)
        (let ((a!1 (ite (and (not (<= B 0)) (>= (HeapSize E) B))
                (select (HeapContents E) B)
                defObj)))
(let ((a!2 (not (<= (next (getTSLL a!1)) 0))))
(let ((a!3 (and a!2 (>= (HeapSize E) (next (getTSLL a!1))))))
(let ((a!4 (ite a!3 (select (HeapContents E) (next (getTSLL a!1))) defObj)))
(let ((a!5 (O_TSLL (TSLL (next (getTSLL a!4)) B (colour (getTSLL a!4))))))
(let ((a!6 (HeapCtor (HeapSize E)
                     (store (HeapContents E) (next (getTSLL a!1)) a!5))))
  (and ((_ is O_TSLL) a!4) ((_ is O_TSLL) a!1) (= A (ite a!3 a!6 E)))))))))
      )
      (inv_main17 A D C B)
    )
  )
)
(assert
  (forall ( (A Heap) (B Int) (C Int) (D Heap) ) 
    (=>
      (and
        (inv_main7 D C B)
        (let ((a!1 (ite (and (not (<= B 0)) (>= (HeapSize D) B))
                (select (HeapContents D) B)
                defObj)))
(let ((a!2 (O_TSLL (TSLL C (prev (getTSLL a!1)) (colour (getTSLL a!1))))))
(let ((a!3 (ite (and (not (<= B 0)) (>= (HeapSize D) B))
                (HeapCtor (HeapSize D) (store (HeapContents D) B a!2))
                D)))
  (and ((_ is O_TSLL) a!1) (= A a!3)))))
      )
      (inv_main8 A C B)
    )
  )
)
(assert
  (forall ( (A Int) (B Int) (C Heap) (D Int) (E Int) (F Int) (G Int) (H Int) (I Heap) ) 
    (=>
      (and
        (inv_main60 I H G F)
        (let ((a!1 (ite (and (not (<= F 0)) (>= (HeapSize I) F))
                (select (HeapContents I) F)
                defObj)))
  (and (not (= E D))
       (= E H)
       (= D (next (getTSLL a!1)))
       (= B G)
       (= A F)
       ((_ is O_TSLL) a!1)
       (= C I)))
      )
      (inv_main59 C E B D)
    )
  )
)
(assert
  (forall ( (A Int) (B Int) (C Int) (D Heap) ) 
    (=>
      (and
        (inv_main48 D C B A)
        (let ((a!1 (ite (and (not (<= A 0)) (>= (HeapSize D) A))
                (select (HeapContents D) A)
                defObj)))
  (and (not (= C A)) ((_ is O_TSLL) a!1) (= 1 (colour (getTSLL a!1)))))
      )
      (inv_main59 D C B A)
    )
  )
)
(assert
  (forall ( (A Int) (B Heap) (C TSLL) (D Int) (E Int) (F Int) (G Heap) (H Int) (I Int) (J Int) (K Heap) ) 
    (=>
      (and
        (inv_main23 K J I H)
        (let ((a!1 (ite (and (not (<= H 0)) (>= (HeapSize K) H))
                (select (HeapContents K) H)
                defObj))
      (a!4 (HeapCtor (+ 1 (HeapSize G))
                     (store (HeapContents G) (+ 1 (HeapSize G)) (O_TSLL C)))))
(let ((a!2 (O_TSLL (TSLL (next (getTSLL a!1)) (prev (getTSLL a!1)) 0))))
(let ((a!3 (ite (and (not (<= H 0)) (>= (HeapSize K) H))
                (HeapCtor (HeapSize K) (store (HeapContents K) H a!2))
                K)))
  (and (= G a!3)
       (= A (+ 1 (HeapSize G)))
       (= E I)
       (= F J)
       (= D H)
       ((_ is O_TSLL) a!1)
       (= B a!4)))))
      )
      (inv_main27 B F E D A)
    )
  )
)
(assert
  (forall ( (A Int) (B Int) (C Int) (D Int) (E Heap) (v_5 Int) ) 
    (=>
      (and
        (inv_main11 E D C B)
        (and (not (= D C)) (= A 0) (= v_5 C))
      )
      (inv_main48 E D C v_5)
    )
  )
)
(assert
  (forall ( (A Heap) (B Int) (C Int) (D Int) (E Heap) ) 
    (=>
      (and
        (inv_main29 E D C B)
        (let ((a!1 (ite (and (not (<= B 0)) (>= (HeapSize E) B))
                (select (HeapContents E) B)
                defObj)))
(let ((a!2 (O_TSLL (TSLL D (prev (getTSLL a!1)) (colour (getTSLL a!1))))))
(let ((a!3 (ite (and (not (<= B 0)) (>= (HeapSize E) B))
                (HeapCtor (HeapSize E) (store (HeapContents E) B a!2))
                E)))
  (and ((_ is O_TSLL) a!1) (= A a!3)))))
      )
      (inv_main31 A D C B)
    )
  )
)
(assert
  (forall ( (A Int) (B Int) (C Int) (D Int) (E Heap) (F Int) (G Int) (H Int) (I Heap) ) 
    (=>
      (and
        (inv_main17 I H G F)
        (let ((a!1 (ite (and (not (<= F 0)) (>= (HeapSize I) F))
                (select (HeapContents I) F)
                defObj)))
  (and (= C G)
       (= D H)
       (= B F)
       (= A (next (getTSLL a!1)))
       ((_ is O_TSLL) a!1)
       (= E I)))
      )
      (inv_main18 E D C A)
    )
  )
)
(assert
  (forall ( (A Int) (B Int) (C Int) (D Int) (E Heap) (v_5 Int) ) 
    (=>
      (and
        (inv_main11 E D C B)
        (and (= D C) (= A 0) (= v_5 C))
      )
      (inv_main50 E D C v_5)
    )
  )
)
(assert
  (forall ( (A Heap) (B Int) (C Heap) ) 
    (=>
      (and
        (inv_main3 C B)
        (let ((a!1 (ite (and (not (<= B 0)) (>= (HeapSize C) B))
                (select (HeapContents C) B)
                defObj)))
(let ((a!2 (O_TSLL (TSLL 0 (prev (getTSLL a!1)) (colour (getTSLL a!1))))))
(let ((a!3 (ite (and (not (<= B 0)) (>= (HeapSize C) B))
                (HeapCtor (HeapSize C) (store (HeapContents C) B a!2))
                C)))
  (and ((_ is O_TSLL) a!1) (= A a!3)))))
      )
      (inv_main4 A B)
    )
  )
)
(assert
  (forall ( (A Int) (B Heap) (C TSLL) (D Int) (E Heap) (F Int) (G Heap) ) 
    (=>
      (and
        (inv_main5 G F)
        (let ((a!1 (ite (and (not (<= F 0)) (>= (HeapSize G) F))
                (select (HeapContents G) F)
                defObj))
      (a!4 (HeapCtor (+ 1 (HeapSize E))
                     (store (HeapContents E) (+ 1 (HeapSize E)) (O_TSLL C)))))
(let ((a!2 (O_TSLL (TSLL (next (getTSLL a!1)) (prev (getTSLL a!1)) 1))))
(let ((a!3 (ite (and (not (<= F 0)) (>= (HeapSize G) F))
                (HeapCtor (HeapSize G) (store (HeapContents G) F a!2))
                G)))
  (and (= E a!3) (= A (+ 1 (HeapSize E))) (= D F) ((_ is O_TSLL) a!1) (= B a!4)))))
      )
      (inv_main7 B D A)
    )
  )
)
(assert
  (forall ( (A Heap) (B Int) (C Int) (D Int) (E Int) (F Heap) (G Int) (H Int) (I Int) (J Heap) ) 
    (=>
      (and
        (inv_main77 J I H G)
        (let ((a!1 (ite (and (not (<= H 0)) (>= (HeapSize J) H))
                (select (HeapContents J) H)
                defObj))
      (a!2 (ite (and (not (<= D 0)) (>= (HeapSize F) D))
                (HeapCtor (HeapSize F) (store (HeapContents F) D defObj))
                F)))
  (and (= F J)
       (= D H)
       (= E I)
       (= C G)
       (= B (next (getTSLL a!1)))
       ((_ is O_TSLL) a!1)
       (= A a!2)))
      )
      (inv_main81 A E D B)
    )
  )
)
(assert
  (forall ( (A Int) (B Int) (C Int) (D Heap) ) 
    (=>
      (and
        (inv_main32 D C B A)
        (let ((a!1 (ite (and (not (<= A 0)) (>= (HeapSize D) A))
                (select (HeapContents D) A)
                defObj)))
(let ((a!2 (not (= C (next (getTSLL a!1))))))
  (and ((_ is O_TSLL) a!1) a!2)))
      )
      (inv_main39 D C B A)
    )
  )
)
(assert
  (forall ( (A Int) (B Int) (C Int) (D Heap) ) 
    (=>
      (and
        (inv_main21 D C B A)
        (let ((a!1 (ite (and (not (<= A 0)) (>= (HeapSize D) A))
                (select (HeapContents D) A)
                defObj)))
  (and ((_ is O_TSLL) a!1) (= 1 (colour (getTSLL a!1)))))
      )
      (inv_main32 D C B A)
    )
  )
)
(assert
  (forall ( (A Int) (B Int) (C Int) (D Int) (E Heap) (F Int) (G Int) (H Int) (I Heap) ) 
    (=>
      (and
        (inv_main28 I H G F)
        (let ((a!1 (ite (and (not (<= F 0)) (>= (HeapSize I) F))
                (select (HeapContents I) F)
                defObj)))
  (and (= C G)
       (= D H)
       (= B F)
       (= A (next (getTSLL a!1)))
       ((_ is O_TSLL) a!1)
       (= E I)))
      )
      (inv_main29 E D C A)
    )
  )
)
(assert
  (forall ( (A Int) (B Int) (C Heap) (D Int) (E Int) (F Int) (G Int) (H Int) (I Heap) ) 
    (=>
      (and
        (inv_main61 I H G F)
        (let ((a!1 (ite (and (not (<= F 0)) (>= (HeapSize I) F))
                (select (HeapContents I) F)
                defObj)))
  (and (= E D)
       (= E H)
       (= D (next (getTSLL a!1)))
       (= B G)
       (= A F)
       ((_ is O_TSLL) a!1)
       (= C I)))
      )
      (inv_main67 C E B D)
    )
  )
)
(assert
  (forall ( (A Heap) (B Int) (C Int) (D Int) (E Int) (F Heap) ) 
    (=>
      (and
        (inv_main27 F E D C B)
        (let ((a!1 (ite (and (not (<= C 0)) (>= (HeapSize F) C))
                (select (HeapContents F) C)
                defObj)))
(let ((a!2 (O_TSLL (TSLL B (prev (getTSLL a!1)) (colour (getTSLL a!1))))))
(let ((a!3 (ite (and (not (<= C 0)) (>= (HeapSize F) C))
                (HeapCtor (HeapSize F) (store (HeapContents F) C a!2))
                F)))
  (and ((_ is O_TSLL) a!1) (= A a!3)))))
      )
      (inv_main26 A E D C)
    )
  )
)
(assert
  (forall ( (A Int) (B Int) (C Int) (D Heap) ) 
    (=>
      (and
        (inv_main76 D C B A)
        (let ((a!1 (ite (and (not (<= B 0)) (>= (HeapSize D) B))
                (select (HeapContents D) B)
                defObj)))
  (and ((_ is O_TSLL) a!1) (= 0 (colour (getTSLL a!1)))))
      )
      (inv_main77 D C B A)
    )
  )
)
(assert
  (forall ( (A Int) (B Int) (C Int) (D Heap) (E Int) (F Int) (G Int) (H Int) (I Heap) ) 
    (=>
      (and
        (inv_main18 I H G F)
        (let ((a!1 (ite (and (not (<= F 0)) (>= (HeapSize I) F))
                (select (HeapContents I) F)
                defObj)))
(let ((a!2 (O_TSLL (TSLL H (prev (getTSLL a!1)) (colour (getTSLL a!1))))))
(let ((a!3 (ite (and (not (<= F 0)) (>= (HeapSize I) F))
                (HeapCtor (HeapSize I) (store (HeapContents I) F a!2))
                I)))
  (and (= C H) (= E 0) (= B G) (= A F) ((_ is O_TSLL) a!1) (= D a!3)))))
      )
      (inv_main23 D C B A)
    )
  )
)
(assert
  (forall ( (A Int) (B Int) (C Int) (D Heap) ) 
    (=>
      (and
        (inv_main59 D C B A)
        (let ((a!1 (ite (and (not (<= A 0)) (>= (HeapSize D) A))
                (select (HeapContents D) A)
                defObj)))
  (and ((_ is O_TSLL) a!1) (= 0 (colour (getTSLL a!1)))))
      )
      (inv_main61 D C B A)
    )
  )
)
(assert
  (forall ( (A Int) (B Int) (C Int) (D Heap) (E Int) (F Int) (G Int) (H Int) (I Heap) ) 
    (=>
      (and
        (inv_main18 I H G F)
        (let ((a!1 (ite (and (not (<= F 0)) (>= (HeapSize I) F))
                (select (HeapContents I) F)
                defObj)))
(let ((a!2 (O_TSLL (TSLL H (prev (getTSLL a!1)) (colour (getTSLL a!1))))))
(let ((a!3 (ite (and (not (<= F 0)) (>= (HeapSize I) F))
                (HeapCtor (HeapSize I) (store (HeapContents I) F a!2))
                I)))
  (and (= C H) (not (= E 0)) (= B G) (= A F) ((_ is O_TSLL) a!1) (= D a!3)))))
      )
      (inv_main22 D C B A)
    )
  )
)
(assert
  (forall ( (A Int) (B Heap) (C TSLL) (D Int) (E Int) (F Int) (G Int) (H Heap) ) 
    (=>
      (and
        (inv_main11 H G F E)
        (let ((a!1 (HeapCtor (+ 1 (HeapSize H))
                     (store (HeapContents H) (+ 1 (HeapSize H)) (O_TSLL C)))))
  (and (not (= D 0)) (= A (+ 1 (HeapSize H))) (= B a!1)))
      )
      (inv_main16 B G F E A)
    )
  )
)
(assert
  (forall ( (A Heap) (B Int) (C Int) (D Heap) ) 
    (=>
      (and
        (inv_main8 D C B)
        (let ((a!1 (ite (and (not (<= B 0)) (>= (HeapSize D) B))
                (select (HeapContents D) B)
                defObj)))
(let ((a!2 (O_TSLL (TSLL (next (getTSLL a!1)) C (colour (getTSLL a!1))))))
(let ((a!3 (ite (and (not (<= B 0)) (>= (HeapSize D) B))
                (HeapCtor (HeapSize D) (store (HeapContents D) B a!2))
                D)))
  (and ((_ is O_TSLL) a!1) (= A a!3)))))
      )
      (inv_main9 A C B)
    )
  )
)
(assert
  (forall ( (A Int) (B Int) (C Int) (D Heap) ) 
    (=>
      (and
        (inv_main48 D C B A)
        (let ((a!1 (ite (and (not (<= A 0)) (>= (HeapSize D) A))
                (select (HeapContents D) A)
                defObj)))
(let ((a!2 (not (= 1 (colour (getTSLL a!1))))))
  (and ((_ is O_TSLL) a!1) a!2)))
      )
      (inv_main55 D C B A)
    )
  )
)
(assert
  (forall ( (A Heap) (B Int) (C Int) (D Int) (E Int) (F Heap) ) 
    (=>
      (and
        (inv_main16 F E D C B)
        (let ((a!1 (ite (and (not (<= C 0)) (>= (HeapSize F) C))
                (select (HeapContents F) C)
                defObj)))
(let ((a!2 (O_TSLL (TSLL B (prev (getTSLL a!1)) (colour (getTSLL a!1))))))
(let ((a!3 (ite (and (not (<= C 0)) (>= (HeapSize F) C))
                (HeapCtor (HeapSize F) (store (HeapContents F) C a!2))
                F)))
  (and ((_ is O_TSLL) a!1) (= A a!3)))))
      )
      (inv_main15 A E D C)
    )
  )
)
(assert
  (forall ( (A Int) (B Int) (C Int) (D Heap) ) 
    (=>
      (and
        (inv_main32 D C B A)
        (let ((a!1 (ite (and (not (<= A 0)) (>= (HeapSize D) A))
                (select (HeapContents D) A)
                defObj)))
  (and (not (= C A)) ((_ is O_TSLL) a!1) (= C (next (getTSLL a!1)))))
      )
      (inv_main11 D C B A)
    )
  )
)
(assert
  (forall ( (A Int) (B Int) (C Heap) (D Int) (E Int) (F Heap) (v_6 Int) ) 
    (=>
      (and
        (inv_main9 F E D)
        (let ((a!1 (ite (and (not (<= D 0)) (>= (HeapSize F) D))
                (select (HeapContents F) D)
                defObj)))
(let ((a!2 (O_TSLL (TSLL (next (getTSLL a!1)) (prev (getTSLL a!1)) 1))))
(let ((a!3 (ite (and (not (<= D 0)) (>= (HeapSize F) D))
                (HeapCtor (HeapSize F) (store (HeapContents F) D a!2))
                F)))
  (and (= B E) (= A D) ((_ is O_TSLL) a!1) (= C a!3) (= v_6 A)))))
      )
      (inv_main11 C B A v_6)
    )
  )
)
(assert
  (forall ( (A Heap) (B Int) (C Heap) ) 
    (=>
      (and
        (inv_main4 C B)
        (let ((a!1 (ite (and (not (<= B 0)) (>= (HeapSize C) B))
                (select (HeapContents C) B)
                defObj)))
(let ((a!2 (O_TSLL (TSLL (next (getTSLL a!1)) 0 (colour (getTSLL a!1))))))
(let ((a!3 (ite (and (not (<= B 0)) (>= (HeapSize C) B))
                (HeapCtor (HeapSize C) (store (HeapContents C) B a!2))
                C)))
  (and ((_ is O_TSLL) a!1) (= A a!3)))))
      )
      (inv_main5 A B)
    )
  )
)
(assert
  (forall ( (A Int) (B Int) (C Int) (D Heap) ) 
    (=>
      (and
        (inv_main21 D C B A)
        (let ((a!1 (ite (and (not (<= A 0)) (>= (HeapSize D) A))
                (select (HeapContents D) A)
                defObj)))
(let ((a!2 (not (= 1 (colour (getTSLL a!1))))))
  (and ((_ is O_TSLL) a!1) a!2)))
      )
      (inv_main34 D C B A)
    )
  )
)
(assert
  (forall ( (A Int) (B Heap) (C TSLL) (D Heap) ) 
    (=>
      (and
        (inv_main2 D)
        (let ((a!1 (HeapCtor (+ 1 (HeapSize D))
                     (store (HeapContents D) (+ 1 (HeapSize D)) (O_TSLL C)))))
  (and (= A (+ 1 (HeapSize D))) (= B a!1)))
      )
      (inv_main3 B A)
    )
  )
)
(assert
  (forall ( (A Int) (B Int) (C Int) (D Heap) ) 
    (=>
      (and
        (inv_main59 D C B A)
        (let ((a!1 (ite (and (not (<= A 0)) (>= (HeapSize D) A))
                (select (HeapContents D) A)
                defObj)))
(let ((a!2 (not (= 0 (colour (getTSLL a!1))))))
  (and ((_ is O_TSLL) a!1) a!2)))
      )
      (inv_main60 D C B A)
    )
  )
)
(assert
  (forall ( (A Int) (B Int) (C Int) (D Heap) ) 
    (=>
      (and
        (inv_main65 D C B A)
        (let ((a!1 (ite (and (not (<= A 0)) (>= (HeapSize D) A))
                (select (HeapContents D) A)
                defObj)))
  (and ((_ is O_TSLL) a!1) (= 1 (colour (getTSLL a!1)))))
      )
      (inv_main60 D C B A)
    )
  )
)
(assert
  (forall ( (A Int) (B Int) (C Heap) (D Int) (E Int) (F Int) (G Int) (H Int) (I Heap) ) 
    (=>
      (and
        (inv_main61 I H G F)
        (let ((a!1 (ite (and (not (<= F 0)) (>= (HeapSize I) F))
                (select (HeapContents I) F)
                defObj)))
  (and (not (= E D))
       (= E H)
       (= D (next (getTSLL a!1)))
       (= B G)
       (= A F)
       ((_ is O_TSLL) a!1)
       (= C I)))
      )
      (inv_main65 C E B D)
    )
  )
)
(assert
  (forall ( (A Int) (B Int) (C Int) (D Heap) ) 
    (=>
      (and
        (inv_main32 D C B A)
        (let ((a!1 (ite (and (not (<= A 0)) (>= (HeapSize D) A))
                (select (HeapContents D) A)
                defObj)))
  (and (= C A) ((_ is O_TSLL) a!1) (= C (next (getTSLL a!1)))))
      )
      (inv_main43 D C B A)
    )
  )
)
(assert
  (forall ( (A Heap) (B Int) (C Int) (D Int) (E Heap) ) 
    (=>
      (and
        (inv_main22 E D C B)
        (let ((a!1 (ite (and (not (<= B 0)) (>= (HeapSize E) B))
                (select (HeapContents E) B)
                defObj)))
(let ((a!2 (O_TSLL (TSLL (next (getTSLL a!1)) (prev (getTSLL a!1)) 1))))
(let ((a!3 (ite (and (not (<= B 0)) (>= (HeapSize E) B))
                (HeapCtor (HeapSize E) (store (HeapContents E) B a!2))
                E)))
  (and ((_ is O_TSLL) a!1) (= A a!3)))))
      )
      (inv_main21 A D C B)
    )
  )
)
(assert
  (forall ( (A Heap) (B Int) (C Int) (D Int) (E Heap) ) 
    (=>
      (and
        (inv_main31 E D C B)
        (let ((a!1 (ite (and (not (<= B 0)) (>= (HeapSize E) B))
                (select (HeapContents E) B)
                defObj)))
(let ((a!2 (O_TSLL (TSLL (next (getTSLL a!1)) (prev (getTSLL a!1)) 1))))
(let ((a!3 (ite (and (not (<= B 0)) (>= (HeapSize E) B))
                (HeapCtor (HeapSize E) (store (HeapContents E) B a!2))
                E)))
  (and ((_ is O_TSLL) a!1) (= A a!3)))))
      )
      (inv_main21 A D C B)
    )
  )
)
(assert
  (forall ( (A Int) (B Heap) (C Int) (D Int) (E Int) (F Int) (G Heap) (H Int) (I Int) (J Int) (K Int) (L Int) (M Heap) ) 
    (=>
      (and
        (inv_main81 M L K J)
        (let ((a!1 (ite (and (not (<= J 0)) (>= (HeapSize M) J))
                (select (HeapContents M) J)
                defObj))
      (a!2 (ite (and (not (<= D 0)) (>= (HeapSize G) D))
                (HeapCtor (HeapSize G) (store (HeapContents G) D defObj))
                G)))
  (and (= G M)
       (= D J)
       (= C (next (getTSLL a!1)))
       (= A D)
       (not (= I H))
       (= I F)
       (= H C)
       (= F L)
       (= E K)
       ((_ is O_TSLL) a!1)
       (= B a!2)))
      )
      (inv_main76 B I H A)
    )
  )
)
(assert
  (forall ( (A Int) (B Heap) (C Int) (D Int) (E Int) (F Int) (G Heap) (H Int) (I Int) (J Int) (K Int) (L Int) (M Heap) (v_13 Int) ) 
    (=>
      (and
        (inv_main78 M L K J)
        (let ((a!1 (ite (and (not (<= K 0)) (>= (HeapSize M) K))
                (select (HeapContents M) K)
                defObj))
      (a!2 (ite (and (not (<= E 0)) (>= (HeapSize G) E))
                (HeapCtor (HeapSize G) (store (HeapContents G) E defObj))
                G)))
  (and (= G M)
       (= D J)
       (= C (next (getTSLL a!1)))
       (= A E)
       (not (= I H))
       (= I F)
       (= H C)
       (= F L)
       (= E K)
       ((_ is O_TSLL) a!1)
       (= B a!2)
       (= v_13 H)))
      )
      (inv_main76 B I H v_13)
    )
  )
)
(assert
  (forall ( (A Int) (B Heap) (C Int) (D Int) (E Int) (F Int) (G Int) (H Int) (I Heap) ) 
    (=>
      (and
        (inv_main60 I H G F)
        (let ((a!1 (ite (and (not (<= F 0)) (>= (HeapSize I) F))
                (select (HeapContents I) F)
                defObj)))
  (and (= C (next (getTSLL a!1)))
       (= E C)
       (not (= E D))
       (= E H)
       (= D G)
       (= A F)
       ((_ is O_TSLL) a!1)
       (= B I)))
      )
      (inv_main76 B E D C)
    )
  )
)
(assert
  (forall ( (A Int) (B Int) (C Int) (D Heap) ) 
    (=>
      (and
        (inv_main48 D C B A)
        (let ((a!1 (ite (and (not (<= A 0)) (>= (HeapSize D) A))
                (select (HeapContents D) A)
                defObj)))
  (and (not (= C B)) (= C A) ((_ is O_TSLL) a!1) (= 1 (colour (getTSLL a!1)))))
      )
      (inv_main76 D C B A)
    )
  )
)
(assert
  (forall ( (A Int) (B Heap) ) 
    (=>
      (and
        (inv_main3 B A)
        (let ((a!1 (ite (and (not (<= A 0)) (>= (HeapSize B) A))
                (select (HeapContents B) A)
                defObj)))
  (not ((_ is O_TSLL) a!1)))
      )
      CHC_COMP_FALSE
    )
  )
)
(assert
  (forall ( (A Int) (B Heap) ) 
    (=>
      (and
        (inv_main4 B A)
        (let ((a!1 (ite (and (not (<= A 0)) (>= (HeapSize B) A))
                (select (HeapContents B) A)
                defObj)))
  (not ((_ is O_TSLL) a!1)))
      )
      CHC_COMP_FALSE
    )
  )
)
(assert
  (forall ( (A Int) (B Heap) ) 
    (=>
      (and
        (inv_main5 B A)
        (let ((a!1 (ite (and (not (<= A 0)) (>= (HeapSize B) A))
                (select (HeapContents B) A)
                defObj)))
  (not ((_ is O_TSLL) a!1)))
      )
      CHC_COMP_FALSE
    )
  )
)
(assert
  (forall ( (A Int) (B Int) (C Heap) ) 
    (=>
      (and
        (inv_main7 C B A)
        (let ((a!1 (ite (and (not (<= A 0)) (>= (HeapSize C) A))
                (select (HeapContents C) A)
                defObj)))
  (not ((_ is O_TSLL) a!1)))
      )
      CHC_COMP_FALSE
    )
  )
)
(assert
  (forall ( (A Int) (B Int) (C Heap) ) 
    (=>
      (and
        (inv_main8 C B A)
        (let ((a!1 (ite (and (not (<= A 0)) (>= (HeapSize C) A))
                (select (HeapContents C) A)
                defObj)))
  (not ((_ is O_TSLL) a!1)))
      )
      CHC_COMP_FALSE
    )
  )
)
(assert
  (forall ( (A Int) (B Int) (C Heap) ) 
    (=>
      (and
        (inv_main9 C B A)
        (let ((a!1 (ite (and (not (<= A 0)) (>= (HeapSize C) A))
                (select (HeapContents C) A)
                defObj)))
  (not ((_ is O_TSLL) a!1)))
      )
      CHC_COMP_FALSE
    )
  )
)
(assert
  (forall ( (A Int) (B Int) (C Int) (D Int) (E Heap) ) 
    (=>
      (and
        (inv_main16 E D C B A)
        (let ((a!1 (ite (and (not (<= B 0)) (>= (HeapSize E) B))
                (select (HeapContents E) B)
                defObj)))
  (not ((_ is O_TSLL) a!1)))
      )
      CHC_COMP_FALSE
    )
  )
)
(assert
  (forall ( (A Int) (B Int) (C Int) (D Heap) ) 
    (=>
      (and
        (inv_main15 D C B A)
        (let ((a!1 (ite (and (not (<= A 0)) (>= (HeapSize D) A))
                (select (HeapContents D) A)
                defObj)))
  (not ((_ is O_TSLL) a!1)))
      )
      CHC_COMP_FALSE
    )
  )
)
(assert
  (forall ( (A Int) (B Int) (C Int) (D Heap) ) 
    (=>
      (and
        (inv_main15 D C B A)
        (let ((a!1 (ite (and (not (<= A 0)) (>= (HeapSize D) A))
                (select (HeapContents D) A)
                defObj)))
(let ((a!2 (not (<= (next (getTSLL a!1)) 0))))
(let ((a!3 (and a!2 (>= (HeapSize D) (next (getTSLL a!1))))))
(let ((a!4 (ite a!3 (select (HeapContents D) (next (getTSLL a!1))) defObj)))
  (and ((_ is O_TSLL) a!1) (not ((_ is O_TSLL) a!4)))))))
      )
      CHC_COMP_FALSE
    )
  )
)
(assert
  (forall ( (A Int) (B Int) (C Int) (D Heap) ) 
    (=>
      (and
        (inv_main17 D C B A)
        (let ((a!1 (ite (and (not (<= A 0)) (>= (HeapSize D) A))
                (select (HeapContents D) A)
                defObj)))
  (not ((_ is O_TSLL) a!1)))
      )
      CHC_COMP_FALSE
    )
  )
)
(assert
  (forall ( (A Int) (B Int) (C Int) (D Heap) ) 
    (=>
      (and
        (inv_main18 D C B A)
        (let ((a!1 (ite (and (not (<= A 0)) (>= (HeapSize D) A))
                (select (HeapContents D) A)
                defObj)))
  (not ((_ is O_TSLL) a!1)))
      )
      CHC_COMP_FALSE
    )
  )
)
(assert
  (forall ( (A Int) (B Int) (C Int) (D Heap) ) 
    (=>
      (and
        (inv_main22 D C B A)
        (let ((a!1 (ite (and (not (<= A 0)) (>= (HeapSize D) A))
                (select (HeapContents D) A)
                defObj)))
  (not ((_ is O_TSLL) a!1)))
      )
      CHC_COMP_FALSE
    )
  )
)
(assert
  (forall ( (A Int) (B Int) (C Int) (D Heap) ) 
    (=>
      (and
        (inv_main23 D C B A)
        (let ((a!1 (ite (and (not (<= A 0)) (>= (HeapSize D) A))
                (select (HeapContents D) A)
                defObj)))
  (not ((_ is O_TSLL) a!1)))
      )
      CHC_COMP_FALSE
    )
  )
)
(assert
  (forall ( (A Int) (B Int) (C Int) (D Int) (E Heap) ) 
    (=>
      (and
        (inv_main27 E D C B A)
        (let ((a!1 (ite (and (not (<= B 0)) (>= (HeapSize E) B))
                (select (HeapContents E) B)
                defObj)))
  (not ((_ is O_TSLL) a!1)))
      )
      CHC_COMP_FALSE
    )
  )
)
(assert
  (forall ( (A Int) (B Int) (C Int) (D Heap) ) 
    (=>
      (and
        (inv_main26 D C B A)
        (let ((a!1 (ite (and (not (<= A 0)) (>= (HeapSize D) A))
                (select (HeapContents D) A)
                defObj)))
  (not ((_ is O_TSLL) a!1)))
      )
      CHC_COMP_FALSE
    )
  )
)
(assert
  (forall ( (A Int) (B Int) (C Int) (D Heap) ) 
    (=>
      (and
        (inv_main26 D C B A)
        (let ((a!1 (ite (and (not (<= A 0)) (>= (HeapSize D) A))
                (select (HeapContents D) A)
                defObj)))
(let ((a!2 (not (<= (next (getTSLL a!1)) 0))))
(let ((a!3 (and a!2 (>= (HeapSize D) (next (getTSLL a!1))))))
(let ((a!4 (ite a!3 (select (HeapContents D) (next (getTSLL a!1))) defObj)))
  (and ((_ is O_TSLL) a!1) (not ((_ is O_TSLL) a!4)))))))
      )
      CHC_COMP_FALSE
    )
  )
)
(assert
  (forall ( (A Int) (B Int) (C Int) (D Heap) ) 
    (=>
      (and
        (inv_main28 D C B A)
        (let ((a!1 (ite (and (not (<= A 0)) (>= (HeapSize D) A))
                (select (HeapContents D) A)
                defObj)))
  (not ((_ is O_TSLL) a!1)))
      )
      CHC_COMP_FALSE
    )
  )
)
(assert
  (forall ( (A Int) (B Int) (C Int) (D Heap) ) 
    (=>
      (and
        (inv_main29 D C B A)
        (let ((a!1 (ite (and (not (<= A 0)) (>= (HeapSize D) A))
                (select (HeapContents D) A)
                defObj)))
  (not ((_ is O_TSLL) a!1)))
      )
      CHC_COMP_FALSE
    )
  )
)
(assert
  (forall ( (A Int) (B Int) (C Int) (D Heap) ) 
    (=>
      (and
        (inv_main31 D C B A)
        (let ((a!1 (ite (and (not (<= A 0)) (>= (HeapSize D) A))
                (select (HeapContents D) A)
                defObj)))
  (not ((_ is O_TSLL) a!1)))
      )
      CHC_COMP_FALSE
    )
  )
)
(assert
  (forall ( (A Int) (B Int) (C Int) (D Heap) ) 
    (=>
      (and
        (inv_main21 D C B A)
        (let ((a!1 (ite (and (not (<= A 0)) (>= (HeapSize D) A))
                (select (HeapContents D) A)
                defObj)))
  (not ((_ is O_TSLL) a!1)))
      )
      CHC_COMP_FALSE
    )
  )
)
(assert
  (forall ( (A Int) (B Int) (C Int) (D Heap) ) 
    (=>
      (and
        (inv_main34 D C B A)
        true
      )
      CHC_COMP_FALSE
    )
  )
)
(assert
  (forall ( (A Int) (B Int) (C Int) (D Heap) ) 
    (=>
      (and
        (inv_main32 D C B A)
        (let ((a!1 (ite (and (not (<= A 0)) (>= (HeapSize D) A))
                (select (HeapContents D) A)
                defObj)))
  (not ((_ is O_TSLL) a!1)))
      )
      CHC_COMP_FALSE
    )
  )
)
(assert
  (forall ( (A Int) (B Int) (C Int) (D Heap) ) 
    (=>
      (and
        (inv_main39 D C B A)
        true
      )
      CHC_COMP_FALSE
    )
  )
)
(assert
  (forall ( (A Int) (B Int) (C Int) (D Heap) ) 
    (=>
      (and
        (inv_main43 D C B A)
        true
      )
      CHC_COMP_FALSE
    )
  )
)
(assert
  (forall ( (A Int) (B Int) (C Int) (D Heap) ) 
    (=>
      (and
        (inv_main50 D C B A)
        true
      )
      CHC_COMP_FALSE
    )
  )
)
(assert
  (forall ( (A Int) (B Int) (C Int) (D Heap) ) 
    (=>
      (and
        (inv_main48 D C B A)
        (let ((a!1 (ite (and (not (<= A 0)) (>= (HeapSize D) A))
                (select (HeapContents D) A)
                defObj)))
  (not ((_ is O_TSLL) a!1)))
      )
      CHC_COMP_FALSE
    )
  )
)
(assert
  (forall ( (A Int) (B Int) (C Int) (D Heap) ) 
    (=>
      (and
        (inv_main55 D C B A)
        true
      )
      CHC_COMP_FALSE
    )
  )
)
(assert
  (forall ( (A Int) (B Int) (C Int) (D Heap) ) 
    (=>
      (and
        (inv_main59 D C B A)
        (let ((a!1 (ite (and (not (<= A 0)) (>= (HeapSize D) A))
                (select (HeapContents D) A)
                defObj)))
  (not ((_ is O_TSLL) a!1)))
      )
      CHC_COMP_FALSE
    )
  )
)
(assert
  (forall ( (A Int) (B Int) (C Int) (D Heap) ) 
    (=>
      (and
        (inv_main61 D C B A)
        (let ((a!1 (ite (and (not (<= A 0)) (>= (HeapSize D) A))
                (select (HeapContents D) A)
                defObj)))
  (not ((_ is O_TSLL) a!1)))
      )
      CHC_COMP_FALSE
    )
  )
)
(assert
  (forall ( (A Int) (B Int) (C Int) (D Heap) ) 
    (=>
      (and
        (inv_main67 D C B A)
        true
      )
      CHC_COMP_FALSE
    )
  )
)
(assert
  (forall ( (A Int) (B Int) (C Int) (D Heap) ) 
    (=>
      (and
        (inv_main65 D C B A)
        (let ((a!1 (ite (and (not (<= A 0)) (>= (HeapSize D) A))
                (select (HeapContents D) A)
                defObj)))
  (not ((_ is O_TSLL) a!1)))
      )
      CHC_COMP_FALSE
    )
  )
)
(assert
  (forall ( (A Int) (B Int) (C Int) (D Heap) ) 
    (=>
      (and
        (inv_main71 D C B A)
        true
      )
      CHC_COMP_FALSE
    )
  )
)
(assert
  (forall ( (A Int) (B Int) (C Int) (D Heap) ) 
    (=>
      (and
        (inv_main60 D C B A)
        (let ((a!1 (ite (and (not (<= A 0)) (>= (HeapSize D) A))
                (select (HeapContents D) A)
                defObj)))
  (not ((_ is O_TSLL) a!1)))
      )
      CHC_COMP_FALSE
    )
  )
)
(assert
  (forall ( (A Int) (B Int) (C Int) (D Heap) ) 
    (=>
      (and
        (inv_main76 D C B A)
        (let ((a!1 (ite (and (not (<= B 0)) (>= (HeapSize D) B))
                (select (HeapContents D) B)
                defObj)))
  (not ((_ is O_TSLL) a!1)))
      )
      CHC_COMP_FALSE
    )
  )
)
(assert
  (forall ( (A Int) (B Int) (C Int) (D Heap) ) 
    (=>
      (and
        (inv_main77 D C B A)
        (let ((a!1 (ite (and (not (<= B 0)) (>= (HeapSize D) B))
                (select (HeapContents D) B)
                defObj)))
  (not ((_ is O_TSLL) a!1)))
      )
      CHC_COMP_FALSE
    )
  )
)
(assert
  (forall ( (A Int) (B Int) (C Int) (D Heap) ) 
    (=>
      (and
        (inv_main81 D C B A)
        (let ((a!1 (ite (and (not (<= A 0)) (>= (HeapSize D) A))
                (select (HeapContents D) A)
                defObj)))
  (not ((_ is O_TSLL) a!1)))
      )
      CHC_COMP_FALSE
    )
  )
)
(assert
  (forall ( (A Int) (B Int) (C Int) (D Heap) ) 
    (=>
      (and
        (inv_main78 D C B A)
        (let ((a!1 (ite (and (not (<= B 0)) (>= (HeapSize D) B))
                (select (HeapContents D) B)
                defObj)))
  (not ((_ is O_TSLL) a!1)))
      )
      CHC_COMP_FALSE
    )
  )
)
(assert
  (forall ( (CHC_COMP_UNUSED Bool) ) 
    (=>
      (and
        CHC_COMP_FALSE
      )
      false
    )
  )
)

(check-sat)
(exit)
